c Path planning problem for ProbSAT
c Generated by gen_cnf.py
p cnf 480 722
1 2 3 4 5 6 7 8 9 10 11 12 13 14 15 16 0
17 18 19 20 21 22 23 24 25 26 27 28 29 30 31 32 0
33 34 35 36 37 38 39 40 41 42 43 44 45 46 47 48 0
49 50 51 52 53 54 55 56 57 58 59 60 61 62 63 64 0
65 66 67 68 69 70 71 72 73 74 75 76 77 78 79 80 0
81 82 83 84 85 86 87 88 89 90 91 92 93 94 95 96 0
97 98 99 100 101 102 103 104 105 106 107 108 109 110 111 112 0
113 114 115 116 117 118 119 120 121 122 123 124 125 126 127 128 0
129 130 131 132 133 134 135 136 137 138 139 140 141 142 143 144 0
145 146 147 148 149 150 151 152 153 154 155 156 157 158 159 160 0
161 162 163 164 165 166 167 168 169 170 171 172 173 174 175 176 0
177 178 179 180 181 182 183 184 185 186 187 188 189 190 191 192 0
193 194 195 196 197 198 199 200 201 202 203 204 205 206 207 208 0
209 210 211 212 213 214 215 216 217 218 219 220 221 222 223 224 0
225 226 227 228 229 230 231 232 233 234 235 236 237 238 239 240 0
241 242 243 244 245 246 247 248 249 250 251 252 253 254 255 256 0
257 258 259 260 261 262 263 264 265 266 267 268 269 270 271 272 0
273 274 275 276 277 278 279 280 281 282 283 284 285 286 287 288 0
289 290 291 292 293 294 295 296 297 298 299 300 301 302 303 304 0
305 306 307 308 309 310 311 312 313 314 315 316 317 318 319 320 0
321 322 323 324 325 326 327 328 329 330 331 332 333 334 335 336 0
337 338 339 340 341 342 343 344 345 346 347 348 349 350 351 352 0
353 354 355 356 357 358 359 360 361 362 363 364 365 366 367 368 0
369 370 371 372 373 374 375 376 377 378 379 380 381 382 383 384 0
385 386 387 388 389 390 391 392 393 394 395 396 397 398 399 400 0
401 402 403 404 405 406 407 408 409 410 411 412 413 414 415 416 0
417 418 419 420 421 422 423 424 425 426 427 428 429 430 431 432 0
433 434 435 436 437 438 439 440 441 442 443 444 445 446 447 448 0
449 450 451 452 453 454 455 456 457 458 459 460 461 462 463 464 0
465 466 467 468 469 470 471 472 473 474 475 476 477 478 479 480 0
-1 -241 0
-2 -242 0
-3 -243 0
-4 -244 0
-5 -245 0
-6 -246 0
-7 -247 0
-8 -248 0
-9 -249 0
-10 -250 0
-11 -251 0
-12 -252 0
-13 -253 0
-14 -254 0
-15 -255 0
-16 -256 0
-17 -257 0
-18 -258 0
-19 -259 0
-20 -260 0
-21 -261 0
-22 -262 0
-23 -263 0
-24 -264 0
-25 -265 0
-26 -266 0
-27 -267 0
-28 -268 0
-29 -269 0
-30 -270 0
-31 -271 0
-32 -272 0
-33 -273 0
-34 -274 0
-35 -275 0
-36 -276 0
-37 -277 0
-38 -278 0
-39 -279 0
-40 -280 0
-41 -281 0
-42 -282 0
-43 -283 0
-44 -284 0
-45 -285 0
-46 -286 0
-47 -287 0
-48 -288 0
-49 -289 0
-50 -290 0
-51 -291 0
-52 -292 0
-53 -293 0
-54 -294 0
-55 -295 0
-56 -296 0
-57 -297 0
-58 -298 0
-59 -299 0
-60 -300 0
-61 -301 0
-62 -302 0
-63 -303 0
-64 -304 0
-65 -305 0
-66 -306 0
-67 -307 0
-68 -308 0
-69 -309 0
-70 -310 0
-71 -311 0
-72 -312 0
-73 -313 0
-74 -314 0
-75 -315 0
-76 -316 0
-77 -317 0
-78 -318 0
-79 -319 0
-80 -320 0
-81 -321 0
-82 -322 0
-83 -323 0
-84 -324 0
-85 -325 0
-86 -326 0
-87 -327 0
-88 -328 0
-89 -329 0
-90 -330 0
-91 -331 0
-92 -332 0
-93 -333 0
-94 -334 0
-95 -335 0
-96 -336 0
-97 -337 0
-98 -338 0
-99 -339 0
-100 -340 0
-101 -341 0
-102 -342 0
-103 -343 0
-104 -344 0
-105 -345 0
-106 -346 0
-107 -347 0
-108 -348 0
-109 -349 0
-110 -350 0
-111 -351 0
-112 -352 0
-113 -353 0
-114 -354 0
-115 -355 0
-116 -356 0
-117 -357 0
-118 -358 0
-119 -359 0
-120 -360 0
-121 -361 0
-122 -362 0
-123 -363 0
-124 -364 0
-125 -365 0
-126 -366 0
-127 -367 0
-128 -368 0
-129 -369 0
-130 -370 0
-131 -371 0
-132 -372 0
-133 -373 0
-134 -374 0
-135 -375 0
-136 -376 0
-137 -377 0
-138 -378 0
-139 -379 0
-140 -380 0
-141 -381 0
-142 -382 0
-143 -383 0
-144 -384 0
-145 -385 0
-146 -386 0
-147 -387 0
-148 -388 0
-149 -389 0
-150 -390 0
-151 -391 0
-152 -392 0
-153 -393 0
-154 -394 0
-155 -395 0
-156 -396 0
-157 -397 0
-158 -398 0
-159 -399 0
-160 -400 0
-161 -401 0
-162 -402 0
-163 -403 0
-164 -404 0
-165 -405 0
-166 -406 0
-167 -407 0
-168 -408 0
-169 -409 0
-170 -410 0
-171 -411 0
-172 -412 0
-173 -413 0
-174 -414 0
-175 -415 0
-176 -416 0
-177 -417 0
-178 -418 0
-179 -419 0
-180 -420 0
-181 -421 0
-182 -422 0
-183 -423 0
-184 -424 0
-185 -425 0
-186 -426 0
-187 -427 0
-188 -428 0
-189 -429 0
-190 -430 0
-191 -431 0
-192 -432 0
-193 -433 0
-194 -434 0
-195 -435 0
-196 -436 0
-197 -437 0
-198 -438 0
-199 -439 0
-200 -440 0
-201 -441 0
-202 -442 0
-203 -443 0
-204 -444 0
-205 -445 0
-206 -446 0
-207 -447 0
-208 -448 0
-209 -449 0
-210 -450 0
-211 -451 0
-212 -452 0
-213 -453 0
-214 -454 0
-215 -455 0
-216 -456 0
-217 -457 0
-218 -458 0
-219 -459 0
-220 -460 0
-221 -461 0
-222 -462 0
-223 -463 0
-224 -464 0
-225 -465 0
-226 -466 0
-227 -467 0
-228 -468 0
-229 -469 0
-230 -470 0
-231 -471 0
-232 -472 0
-233 -473 0
-234 -474 0
-235 -475 0
-236 -476 0
-237 -477 0
-238 -478 0
-239 -479 0
-240 -480 0
-1 17 21 18 0
-2 18 22 19 17 0
-3 19 23 20 18 0
-4 20 24 19 0
-5 21 25 17 22 0
-6 22 26 18 23 21 0
-7 23 27 19 24 22 0
-8 24 28 20 23 0
-9 25 29 21 26 0
-10 26 30 22 27 25 0
-11 27 31 23 28 26 0
-12 28 32 24 27 0
-13 29 25 30 0
-14 30 26 31 29 0
-15 31 27 32 30 0
-16 32 28 31 0
-17 33 37 34 0
-18 34 38 35 33 0
-19 35 39 36 34 0
-20 36 40 35 0
-21 37 41 33 38 0
-22 38 42 34 39 37 0
-23 39 43 35 40 38 0
-24 40 44 36 39 0
-25 41 45 37 42 0
-26 42 46 38 43 41 0
-27 43 47 39 44 42 0
-28 44 48 40 43 0
-29 45 41 46 0
-30 46 42 47 45 0
-31 47 43 48 46 0
-32 48 44 47 0
-33 49 53 50 0
-34 50 54 51 49 0
-35 51 55 52 50 0
-36 52 56 51 0
-37 53 57 49 54 0
-38 54 58 50 55 53 0
-39 55 59 51 56 54 0
-40 56 60 52 55 0
-41 57 61 53 58 0
-42 58 62 54 59 57 0
-43 59 63 55 60 58 0
-44 60 64 56 59 0
-45 61 57 62 0
-46 62 58 63 61 0
-47 63 59 64 62 0
-48 64 60 63 0
-49 65 69 66 0
-50 66 70 67 65 0
-51 67 71 68 66 0
-52 68 72 67 0
-53 69 73 65 70 0
-54 70 74 66 71 69 0
-55 71 75 67 72 70 0
-56 72 76 68 71 0
-57 73 77 69 74 0
-58 74 78 70 75 73 0
-59 75 79 71 76 74 0
-60 76 80 72 75 0
-61 77 73 78 0
-62 78 74 79 77 0
-63 79 75 80 78 0
-64 80 76 79 0
-65 81 85 82 0
-66 82 86 83 81 0
-67 83 87 84 82 0
-68 84 88 83 0
-69 85 89 81 86 0
-70 86 90 82 87 85 0
-71 87 91 83 88 86 0
-72 88 92 84 87 0
-73 89 93 85 90 0
-74 90 94 86 91 89 0
-75 91 95 87 92 90 0
-76 92 96 88 91 0
-77 93 89 94 0
-78 94 90 95 93 0
-79 95 91 96 94 0
-80 96 92 95 0
-81 97 101 98 0
-82 98 102 99 97 0
-83 99 103 100 98 0
-84 100 104 99 0
-85 101 105 97 102 0
-86 102 106 98 103 101 0
-87 103 107 99 104 102 0
-88 104 108 100 103 0
-89 105 109 101 106 0
-90 106 110 102 107 105 0
-91 107 111 103 108 106 0
-92 108 112 104 107 0
-93 109 105 110 0
-94 110 106 111 109 0
-95 111 107 112 110 0
-96 112 108 111 0
-97 113 117 114 0
-98 114 118 115 113 0
-99 115 119 116 114 0
-100 116 120 115 0
-101 117 121 113 118 0
-102 118 122 114 119 117 0
-103 119 123 115 120 118 0
-104 120 124 116 119 0
-105 121 125 117 122 0
-106 122 126 118 123 121 0
-107 123 127 119 124 122 0
-108 124 128 120 123 0
-109 125 121 126 0
-110 126 122 127 125 0
-111 127 123 128 126 0
-112 128 124 127 0
-113 129 133 130 0
-114 130 134 131 129 0
-115 131 135 132 130 0
-116 132 136 131 0
-117 133 137 129 134 0
-118 134 138 130 135 133 0
-119 135 139 131 136 134 0
-120 136 140 132 135 0
-121 137 141 133 138 0
-122 138 142 134 139 137 0
-123 139 143 135 140 138 0
-124 140 144 136 139 0
-125 141 137 142 0
-126 142 138 143 141 0
-127 143 139 144 142 0
-128 144 140 143 0
-129 145 149 146 0
-130 146 150 147 145 0
-131 147 151 148 146 0
-132 148 152 147 0
-133 149 153 145 150 0
-134 150 154 146 151 149 0
-135 151 155 147 152 150 0
-136 152 156 148 151 0
-137 153 157 149 154 0
-138 154 158 150 155 153 0
-139 155 159 151 156 154 0
-140 156 160 152 155 0
-141 157 153 158 0
-142 158 154 159 157 0
-143 159 155 160 158 0
-144 160 156 159 0
-145 161 165 162 0
-146 162 166 163 161 0
-147 163 167 164 162 0
-148 164 168 163 0
-149 165 169 161 166 0
-150 166 170 162 167 165 0
-151 167 171 163 168 166 0
-152 168 172 164 167 0
-153 169 173 165 170 0
-154 170 174 166 171 169 0
-155 171 175 167 172 170 0
-156 172 176 168 171 0
-157 173 169 174 0
-158 174 170 175 173 0
-159 175 171 176 174 0
-160 176 172 175 0
-161 177 181 178 0
-162 178 182 179 177 0
-163 179 183 180 178 0
-164 180 184 179 0
-165 181 185 177 182 0
-166 182 186 178 183 181 0
-167 183 187 179 184 182 0
-168 184 188 180 183 0
-169 185 189 181 186 0
-170 186 190 182 187 185 0
-171 187 191 183 188 186 0
-172 188 192 184 187 0
-173 189 185 190 0
-174 190 186 191 189 0
-175 191 187 192 190 0
-176 192 188 191 0
-177 193 197 194 0
-178 194 198 195 193 0
-179 195 199 196 194 0
-180 196 200 195 0
-181 197 201 193 198 0
-182 198 202 194 199 197 0
-183 199 203 195 200 198 0
-184 200 204 196 199 0
-185 201 205 197 202 0
-186 202 206 198 203 201 0
-187 203 207 199 204 202 0
-188 204 208 200 203 0
-189 205 201 206 0
-190 206 202 207 205 0
-191 207 203 208 206 0
-192 208 204 207 0
-193 209 213 210 0
-194 210 214 211 209 0
-195 211 215 212 210 0
-196 212 216 211 0
-197 213 217 209 214 0
-198 214 218 210 215 213 0
-199 215 219 211 216 214 0
-200 216 220 212 215 0
-201 217 221 213 218 0
-202 218 222 214 219 217 0
-203 219 223 215 220 218 0
-204 220 224 216 219 0
-205 221 217 222 0
-206 222 218 223 221 0
-207 223 219 224 222 0
-208 224 220 223 0
-209 225 229 226 0
-210 226 230 227 225 0
-211 227 231 228 226 0
-212 228 232 227 0
-213 229 233 225 230 0
-214 230 234 226 231 229 0
-215 231 235 227 232 230 0
-216 232 236 228 231 0
-217 233 237 229 234 0
-218 234 238 230 235 233 0
-219 235 239 231 236 234 0
-220 236 240 232 235 0
-221 237 233 238 0
-222 238 234 239 237 0
-223 239 235 240 238 0
-224 240 236 239 0
-241 257 261 258 0
-242 258 262 259 257 0
-243 259 263 260 258 0
-244 260 264 259 0
-245 261 265 257 262 0
-246 262 266 258 263 261 0
-247 263 267 259 264 262 0
-248 264 268 260 263 0
-249 265 269 261 266 0
-250 266 270 262 267 265 0
-251 267 271 263 268 266 0
-252 268 272 264 267 0
-253 269 265 270 0
-254 270 266 271 269 0
-255 271 267 272 270 0
-256 272 268 271 0
-257 273 277 274 0
-258 274 278 275 273 0
-259 275 279 276 274 0
-260 276 280 275 0
-261 277 281 273 278 0
-262 278 282 274 279 277 0
-263 279 283 275 280 278 0
-264 280 284 276 279 0
-265 281 285 277 282 0
-266 282 286 278 283 281 0
-267 283 287 279 284 282 0
-268 284 288 280 283 0
-269 285 281 286 0
-270 286 282 287 285 0
-271 287 283 288 286 0
-272 288 284 287 0
-273 289 293 290 0
-274 290 294 291 289 0
-275 291 295 292 290 0
-276 292 296 291 0
-277 293 297 289 294 0
-278 294 298 290 295 293 0
-279 295 299 291 296 294 0
-280 296 300 292 295 0
-281 297 301 293 298 0
-282 298 302 294 299 297 0
-283 299 303 295 300 298 0
-284 300 304 296 299 0
-285 301 297 302 0
-286 302 298 303 301 0
-287 303 299 304 302 0
-288 304 300 303 0
-289 305 309 306 0
-290 306 310 307 305 0
-291 307 311 308 306 0
-292 308 312 307 0
-293 309 313 305 310 0
-294 310 314 306 311 309 0
-295 311 315 307 312 310 0
-296 312 316 308 311 0
-297 313 317 309 314 0
-298 314 318 310 315 313 0
-299 315 319 311 316 314 0
-300 316 320 312 315 0
-301 317 313 318 0
-302 318 314 319 317 0
-303 319 315 320 318 0
-304 320 316 319 0
-305 321 325 322 0
-306 322 326 323 321 0
-307 323 327 324 322 0
-308 324 328 323 0
-309 325 329 321 326 0
-310 326 330 322 327 325 0
-311 327 331 323 328 326 0
-312 328 332 324 327 0
-313 329 333 325 330 0
-314 330 334 326 331 329 0
-315 331 335 327 332 330 0
-316 332 336 328 331 0
-317 333 329 334 0
-318 334 330 335 333 0
-319 335 331 336 334 0
-320 336 332 335 0
-321 337 341 338 0
-322 338 342 339 337 0
-323 339 343 340 338 0
-324 340 344 339 0
-325 341 345 337 342 0
-326 342 346 338 343 341 0
-327 343 347 339 344 342 0
-328 344 348 340 343 0
-329 345 349 341 346 0
-330 346 350 342 347 345 0
-331 347 351 343 348 346 0
-332 348 352 344 347 0
-333 349 345 350 0
-334 350 346 351 349 0
-335 351 347 352 350 0
-336 352 348 351 0
-337 353 357 354 0
-338 354 358 355 353 0
-339 355 359 356 354 0
-340 356 360 355 0
-341 357 361 353 358 0
-342 358 362 354 359 357 0
-343 359 363 355 360 358 0
-344 360 364 356 359 0
-345 361 365 357 362 0
-346 362 366 358 363 361 0
-347 363 367 359 364 362 0
-348 364 368 360 363 0
-349 365 361 366 0
-350 366 362 367 365 0
-351 367 363 368 366 0
-352 368 364 367 0
-353 369 373 370 0
-354 370 374 371 369 0
-355 371 375 372 370 0
-356 372 376 371 0
-357 373 377 369 374 0
-358 374 378 370 375 373 0
-359 375 379 371 376 374 0
-360 376 380 372 375 0
-361 377 381 373 378 0
-362 378 382 374 379 377 0
-363 379 383 375 380 378 0
-364 380 384 376 379 0
-365 381 377 382 0
-366 382 378 383 381 0
-367 383 379 384 382 0
-368 384 380 383 0
-369 385 389 386 0
-370 386 390 387 385 0
-371 387 391 388 386 0
-372 388 392 387 0
-373 389 393 385 390 0
-374 390 394 386 391 389 0
-375 391 395 387 392 390 0
-376 392 396 388 391 0
-377 393 397 389 394 0
-378 394 398 390 395 393 0
-379 395 399 391 396 394 0
-380 396 400 392 395 0
-381 397 393 398 0
-382 398 394 399 397 0
-383 399 395 400 398 0
-384 400 396 399 0
-385 401 405 402 0
-386 402 406 403 401 0
-387 403 407 404 402 0
-388 404 408 403 0
-389 405 409 401 406 0
-390 406 410 402 407 405 0
-391 407 411 403 408 406 0
-392 408 412 404 407 0
-393 409 413 405 410 0
-394 410 414 406 411 409 0
-395 411 415 407 412 410 0
-396 412 416 408 411 0
-397 413 409 414 0
-398 414 410 415 413 0
-399 415 411 416 414 0
-400 416 412 415 0
-401 417 421 418 0
-402 418 422 419 417 0
-403 419 423 420 418 0
-404 420 424 419 0
-405 421 425 417 422 0
-406 422 426 418 423 421 0
-407 423 427 419 424 422 0
-408 424 428 420 423 0
-409 425 429 421 426 0
-410 426 430 422 427 425 0
-411 427 431 423 428 426 0
-412 428 432 424 427 0
-413 429 425 430 0
-414 430 426 431 429 0
-415 431 427 432 430 0
-416 432 428 431 0
-417 433 437 434 0
-418 434 438 435 433 0
-419 435 439 436 434 0
-420 436 440 435 0
-421 437 441 433 438 0
-422 438 442 434 439 437 0
-423 439 443 435 440 438 0
-424 440 444 436 439 0
-425 441 445 437 442 0
-426 442 446 438 443 441 0
-427 443 447 439 444 442 0
-428 444 448 440 443 0
-429 445 441 446 0
-430 446 442 447 445 0
-431 447 443 448 446 0
-432 448 444 447 0
-433 449 453 450 0
-434 450 454 451 449 0
-435 451 455 452 450 0
-436 452 456 451 0
-437 453 457 449 454 0
-438 454 458 450 455 453 0
-439 455 459 451 456 454 0
-440 456 460 452 455 0
-441 457 461 453 458 0
-442 458 462 454 459 457 0
-443 459 463 455 460 458 0
-444 460 464 456 459 0
-445 461 457 462 0
-446 462 458 463 461 0
-447 463 459 464 462 0
-448 464 460 463 0
-449 465 469 466 0
-450 466 470 467 465 0
-451 467 471 468 466 0
-452 468 472 467 0
-453 469 473 465 470 0
-454 470 474 466 471 469 0
-455 471 475 467 472 470 0
-456 472 476 468 471 0
-457 473 477 469 474 0
-458 474 478 470 475 473 0
-459 475 479 471 476 474 0
-460 476 480 472 475 0
-461 477 473 478 0
-462 478 474 479 477 0
-463 479 475 480 478 0
-464 480 476 479 0
1 0
245 0
240 0
476 0
